0 7975241
1 7946773
2 7892524
4 7882899
11 7738566
15 7711113
19 7707864
21 7685637
22 7684220
23 7654957
25 7623230
31 7596270
34 7546337
35 7533387
38 7523455
40 7495232
48 7454512
53 7452357
68 7442336
74 7438349
84 7438144
87 7437400
104 7434171
105 7432534
107 7410129
124 7404954
140 7398805
159 7383151
162 7383125
164 7369455
170 7366189
179 7357141
206 7355009
209 7354913
212 7354798
214 7354136
217 7278786
219 7272354
224 7272060
235 7241380
243 7239914
253 7238737
258 7235377
276 7225999
279 7224946
292 7199505
305 7198689
328 7198346
376 7197723
378 7197310
396 7197212
449 7197184
515 7193102
544 7193060
562 7192962
592 7191993
603 7188288
716 7182531
740 7181662
741 7181018
954 7180416
997 7180122
